# Cost: 621

# Tail Head Net
919 959 1
920 919 1
941 981 1
942 941 1
943 942 1
944 943 1
945 944 1
946 945 1
947 946 1
948 947 1
949 948 1
950 949 1
951 950 1
952 951 1
953 952 1
954 953 1
955 954 1
956 955 1
957 956 1
958 957 1
959 958 1
981 1021 1
1021 1061 1
1061 1101 1
1100 1140 1
1101 1100 1
1140 1180 1
1180 1220 1
1220 1260 1
1259 1299 1
1260 1259 1
1282 1281 1
1283 1282 1
1284 1283 1
1285 1284 1
1286 1285 1
1287 1286 1
1288 1287 1
1289 1288 1
1290 1289 1
1291 1290 1
1292 1291 1
1293 1292 1
1294 1293 1
1295 1294 1
1296 1295 1
1297 1296 1
1298 1297 1
1299 1298 1
1299 1339 1
1339 1379 1
1379 1419 1
1419 1459 1
1459 1499 1
1499 1539 1
1539 1579 1
362 361 2
363 362 2
364 363 2
365 364 2
405 365 2
445 405 2
485 445 2
525 485 2
565 525 2
605 565 2
645 605 2
685 645 2
725 685 2
765 725 2
805 765 2
805 806 2
806 807 2
807 808 2
808 809 2
809 810 2
810 811 2
811 812 2
812 813 2
813 814 2
814 815 2
815 816 2
816 817 2
817 818 2
818 819 2
819 820 2
820 821 2
821 822 2
822 823 2
823 824 2
824 825 2
825 826 2
826 827 2
827 828 2
828 829 2
829 830 2
830 831 2
831 832 2
832 833 2
833 834 2
834 835 2
835 836 2
836 837 2
837 838 2
838 839 2
839 840 2
2405 805 2
2445 2405 2
2485 2445 2
2525 2485 2
2565 2525 2
2605 2565 2
2645 2605 2
2685 2645 2
2725 2685 2
2765 2725 2
2805 2765 2
2845 2805 2
1325 2925 2
2885 2845 2
1365 1325 2
2925 2885 2
1405 1365 2
1445 1405 2
1485 1445 2
1525 1485 2
1565 1525 2
161 1761 3
1761 1762 3
1762 1763 3
1763 1764 3
1764 1765 3
1765 1766 3
1766 1767 3
1767 1768 3
1768 1769 3
1769 1809 3
1809 1810 3
1810 1850 3
1850 1890 3
1890 1930 3
1930 1970 3
1970 2010 3
2010 2050 3
2050 2090 3
2090 2130 3
2130 2170 3
2170 2210 3
2210 2250 3
2250 2290 3
2290 2330 3
2330 2370 3
2370 2410 3
2410 2450 3
2450 2451 3
2451 2491 3
2491 2531 3
2531 2571 3
2571 2611 3
2611 2651 3
2651 2691 3
2691 2731 3
2731 2771 3
2771 2811 3
2811 2851 3
2851 2891 3
1300 1301 3
1301 1302 3
1302 1303 3
1303 1304 3
1304 1305 3
1305 1306 3
1306 1307 3
1307 1308 3
1308 1309 3
1309 1310 3
1310 1311 3
1311 1312 3
1312 1313 3
1313 1314 3
1314 1315 3
1315 1316 3
1316 1317 3
1317 1318 3
1318 1319 3
1319 1320 3
1331 1371 3
2891 2892 3
2891 2931 3
2892 2893 3
2893 2894 3
2894 2895 3
2895 2896 3
2896 2897 3
2897 2898 3
2898 2899 3
2899 2900 3
2900 1300 3
1371 1411 3
2931 1331 3
1411 1451 3
1451 1491 3
1491 1531 3
1531 1571 3
241 281 4
281 321 4
321 1921 4
1921 1961 4
1961 2001 4
2001 2041 4
2041 2081 4
2081 2121 4
2121 2161 4
2161 2201 4
2201 2241 4
2241 2281 4
2281 2321 4
2321 2361 4
2361 2401 4
2401 2441 4
2441 2481 4
2481 2521 4
2521 2522 4
2522 2562 4
2562 2602 4
2602 2642 4
1044 1045 4
1045 1046 4
1046 1047 4
1047 1048 4
1048 1049 4
1049 1050 4
1050 1051 4
1051 1052 4
1052 1053 4
1053 1054 4
1054 1055 4
1055 1056 4
1056 1057 4
1057 1058 4
1058 1059 4
1059 1060 4
1060 2660 4
1062 1063 4
1063 1064 4
1064 1065 4
1065 1066 4
1066 1067 4
1067 1068 4
1068 1069 4
1069 1070 4
1070 1071 4
1071 1072 4
1072 1073 4
1073 1074 4
1074 1075 4
1075 1076 4
1076 1077 4
1077 1078 4
1078 1079 4
1079 1080 4
2642 2643 4
2642 2682 4
2643 2644 4
2644 1044 4
2660 2661 4
2661 2662 4
2662 1062 4
2682 2722 4
2722 2762 4
2762 2802 4
2802 2842 4
2842 2882 4
1322 1362 4
2882 2922 4
1362 1402 4
2922 1322 4
1402 1442 4
1442 1482 4
1482 1522 4
1522 1562 4
  3  43 5
  4   3 5
 43  83 5
  5   4 5
  6   5 5
  7   6 5
  8   7 5
  9   8 5
 10   9 5
 11  10 5
 12  11 5
 13  12 5
 14  13 5
 15  14 5
 16  15 5
 17  16 5
 18  17 5
 19  18 5
 20  19 5
 21  20 5
 22  21 5
 23  22 5
 24  23 5
 25  24 5
 26  25 5
 82 122 5
 83  82 5
122 162 5
162 202 5
202 201 5
1574 1573 6
1575 1574 6
1576 1575 6
1577 1576 6
1578 1577 6
1590 3190 6
1591 1590 6
1592 1591 6
1593 1592 6
1594 1593 6
3178 1578 6
3179 3178 6
3180 3179 6
3181 3180 6
3182 3181 6
3183 3182 6
3184 3183 6
3185 3184 6
3186 3185 6
3187 3186 6
3188 3187 6
3189 3188 6
3190 3189 6
961 962 7
962 1002 7
1002 1042 7
1042 1043 7
1043 1083 7
1083 1084 7
1084 1085 7
1085 1086 7
1086 1087 7
1087 1088 7
1088 1089 7
1089 1090 7
1090 1091 7
1091 1092 7
1092 1093 7
1093 1094 7
1094 1095 7
1095 1096 7
1096 1097 7
1097 1098 7
1098 1099 7
1099 2699 7
2699 2700 7
2700 2701 7
2701 2741 7
2741 2781 7
2781 2821 7
2821 2861 7
2861 2862 7
2862 2902 7
1342 1343 7
2902 2942 7
1343 1344 7
1344 1345 7
1345 1346 7
1346 1347 7
1347 1348 7
1348 1349 7
1349 1350 7
1350 1351 7
1351 1352 7
1352 1392 7
2942 1342 7
1392 1432 7
1432 1433 7
1433 1434 7
1434 1474 7
1474 1475 7
1475 1515 7
1515 1555 7
1555 1595 7
 34  74 8
 35  34 8
 74 114 8
114 154 8
154 194 8
194 234 8
234 274 8
274 314 8
314 354 8
354 394 8
394 434 8
434 474 8
474 514 8
513 553 8
514 513 8
553 593 8
593 633 8
632 672 8
633 632 8
672 712 8
712 752 8
751 791 8
752 751 8
791 2391 8
2391 2431 8
2431 2471 8
2471 2511 8
2511 2551 8
2551 2591 8
2591 2631 8
2631 2671 8
2671 2711 8
2711 2751 8
2751 2791 8
2791 2831 8
2831 2871 8
2871 2911 8
2911 2951 8
2951 2991 8
2991 3031 8
1463 1503 8
3031 3071 8
1503 1543 8
3063 1463 8
3064 3063 8
3065 3064 8
3066 3065 8
3067 3066 8
3068 3067 8
3069 3068 8
3070 3069 8
3071 3070 8
1543 1583 8
 45  46 9
 46  47 9
 47  48 9
 48  49 9
 49  50 9
 50  51 9
 51  52 9
 52  53 9
 53  54 9
 54  55 9
 55  56 9
 56  57 9
 57  58 9
 58  59 9
 59  60 9
 60  61 9
 61  62 9
 62  63 9
 63  64 9
 64  65 9
 65  66 9
 27  28 9
 66  67 9
 28  29 9
 67  27 9
 85  45 9
125  85 9
165 125 9
205 165 9
245 205 9
285 245 9
1885 285 9
1925 1885 9
1965 1925 9
442 2042 9
2003 2004 9
2004 2005 9
2005 1965 9
482 442 9
2042 2043 9
2043 2003 9
521 522 9
522 482 9
1541 1581 10
3141 1541 10
3142 3141 10
3143 3142 10
3144 3143 10
3145 3144 10
3146 3145 10
3147 3146 10
3148 3147 10
3149 3148 10
3150 3149 10
3151 3150 10
3152 3151 10
1597 3197 10
3192 3152 10
3193 3192 10
3194 3193 10
3195 3194 10
3196 3195 10
3197 3196 10
842 841 11
843 842 11
883 843 11
884 883 11
885 884 11
925 885 11
926 925 11
927 926 11
928 927 11
929 928 11
930 929 11
931 930 11
971 931 11
972 971 11
2572 972 11
2573 2572 11
2574 2573 11
2575 2574 11
2576 2575 11
2577 2576 11
2617 2577 11
2618 2617 11
2619 2618 11
2620 2619 11
2621 2620 11
2622 2621 11
2623 2622 11
2663 2623 11
2703 2663 11
2743 2703 11
2783 2743 11
1230 2830 11
1231 1230 11
1232 1231 11
1233 1232 11
1234 1233 11
1235 1234 11
1236 1235 11
1237 1236 11
1238 1237 11
1239 1238 11
1240 1239 11
2823 2783 11
2824 2823 11
2825 2824 11
2826 2825 11
2827 2826 11
2828 2827 11
2829 2828 11
2830 2829 11
 81  41 12
121  81 12
1721 121 12
1507 3107 12
3106 4706 12
1547 1507 12
3107 3106 12
1548 1547 12
1588 1548 12
1589 1588 12
3321 1721 12
3361 3321 12
3362 3361 12
3363 3362 12
3403 3363 12
3443 3403 12
3483 3443 12
3523 3483 12
3563 3523 12
3603 3563 12
3643 3603 12
3683 3643 12
3723 3683 12
3763 3723 12
3803 3763 12
3843 3803 12
3883 3843 12
3923 3883 12
3963 3923 12
3964 3963 12
4004 3964 12
4005 4004 12
4006 4005 12
4046 4006 12
4086 4046 12
4126 4086 12
4166 4126 12
4206 4166 12
4246 4206 12
4247 4246 12
4287 4247 12
4327 4287 12
4328 4327 12
4368 4328 12
4408 4368 12
4409 4408 12
4410 4409 12
4450 4410 12
4490 4450 12
4491 4490 12
4492 4491 12
4493 4492 12
4494 4493 12
4495 4494 12
4496 4495 12
4497 4496 12
4537 4497 12
4577 4537 12
4578 4577 12
4579 4578 12
4580 4579 12
4581 4580 12
4621 4581 12
4661 4621 12
4662 4661 12
4663 4662 12
4703 4663 12
4704 4703 12
4705 4704 12
4706 4705 12
